NAME : mEgtspf.pid3564.gtsp.237592054.tour
COMMENT : Length = 237592054
COMMENT : Found by LKH [Keld Helsgaun] Sun Mar  9 12:35:25 2025
TYPE : TOUR
DIMENSION : 135
TOUR_SECTION
1
128
129
130
131
95
92
93
94
124
125
126
127
12
10
51
48
49
50
106
107
104
105
75
72
73
74
7
37
38
39
36
45
46
47
44
13
120
121
122
123
35
32
33
34
8
30
31
28
29
109
110
111
108
25
26
27
24
132
133
134
135
4
100
101
102
103
20
21
22
23
98
99
96
97
57
58
59
56
88
89
90
91
2
43
40
41
42
67
64
65
66
14
85
86
87
84
82
83
80
81
11
115
112
113
114
9
60
61
62
63
119
116
117
118
6
77
78
79
76
5
71
68
69
70
15
17
18
19
16
3
53
54
55
52
-1
EOF
